setgridsize(128, 32, 1)
setcellsize(5e-9, 5e-9, 8e-9)
setGeom(ellipse(500e-9, 160e-9))
Msat = 860e3
Aex = 13e-12
alpha= 0.05
m=uniform(1, 0, 0)
relax()
f := 1e9 // 1GHz
A := 0.01 // 10mT
B_ext = vector(0.1, A*sin(2*pi*f*t), 0)
run(10e-9)
