setgridsize(128, 128, 3)
setcellsize(5e-9, 5e-9, 5e-9)

Msat  = 800e3
Aex   = 13e-12
alpha = 0.02

// set m in only a part of space, or a single cell:
m = vortex(1, 0)
m.setInShape(cylinder(400e-9, 5e-9), vortex(-1, 0))
m.setCell(20, 10, 0, vector(0.1, 0.1, -0.9)) // set in cell index  [20,10,0]
saveas(m, "setInShape_setCell")

relax()
save(m)    // relaxed state

autosave(m, 200e-12)
tableautosave(10e-12)

run(1e-9)
